FILENAME:   ../instances_new/flowersnark/flowersnark17_3.cip
SETTINGS:   settings_final_nopeek_relabel_min
TIMELIMIT:  7200
OUTPUTNAME: final_flowersnark__settings_final_nopeek_relabel_min__2__
BINNAME:    bin/sbcs.linux.x86_64.gnu.opt.cpx
BASENAME:   flowersnark17_3.cip
SEED:       2
@01 ../instances_new/flowersnark/flowersnark17_3.cip ===========
@02 flowersnark17_3.cip
@03 1667977067
SCIP version 8.0.2 [precision: 8 byte] [memory: block] [mode: optimized] [LP solver: CPLEX 20.1.0.0] [GitHash: 5f0473c]
Copyright (C) 2002-2022 Konrad-Zuse-Zentrum fuer Informationstechnik Berlin (ZIB)

Symretope propagation methods - (c) Jasper van Doornmalen, Christopher Hojny.
[GitHash: 2fd0484]

reading parameter file <../settings/settings_final_nopeek_relabel_min.set> ...

Changed settings:
limits/time = 7200
misc/usesymmetry = 1
randomization/randomseedshift = 2
constraints/orbisack/sepafreq = -1
constraints/symresack/sepafreq = -1
propagating/symmetry/addsymresacks = TRUE
propagating/symmetry/detectsubgroups = FALSE
propagating/symmetry/relabelsymretopes = 2
propagating/symmetry/ofsymcomptiming = 0
constraints/symretope/sepafreq = -1
constraints/symretope/peek = FALSE


solving problem ...

original problem has 306 variables (306 bin, 0 int, 0 impl, 0 cont) and 306 constraints
presolving:
(round 1, exhaustive) 0 del vars, 0 del conss, 0 add conss, 0 chg bounds, 0 chg sides, 0 chg coeffs, 306 upgd conss, 0 impls, 306 clqs
   (0.0s) probing: 51/306 (16.7%) - 0 fixings, 0 aggregations, 0 implications, 0 bound changes
   (0.0s) probing aborted: 50/50 successive totally useless probings
   (0.0s) symmetry computation started: requiring (bin +, int +, cont +), (fixed: bin -, int -, cont -)
   (0.0s) symmetry computation finished: 5 generators found (max: 1500, log10 of symmetry group size: 2.6)
(round 2, exhaustive) 7 del vars, 0 del conss, 5 add conss, 0 chg bounds, 0 chg sides, 0 chg coeffs, 306 upgd conss, 0 impls, 303 clqs
(round 3, fast)       16 del vars, 7 del conss, 5 add conss, 0 chg bounds, 0 chg sides, 0 chg coeffs, 306 upgd conss, 0 impls, 299 clqs
(round 4, medium)     17 del vars, 7 del conss, 5 add conss, 0 chg bounds, 0 chg sides, 0 chg coeffs, 306 upgd conss, 0 impls, 299 clqs
(round 5, fast)       18 del vars, 8 del conss, 5 add conss, 0 chg bounds, 0 chg sides, 0 chg coeffs, 306 upgd conss, 0 impls, 298 clqs
   (0.0s) probing: 56/306 (18.3%) - 0 fixings, 0 aggregations, 0 implications, 0 bound changes
   (0.0s) probing aborted: 50/50 successive totally useless probings
presolving (6 rounds: 6 fast, 4 medium, 3 exhaustive):
 18 deleted vars, 8 deleted constraints, 5 added constraints, 0 tightened bounds, 0 added holes, 0 changed sides, 0 changed coefficients
 0 implications, 298 cliques
presolved problem has 293 variables (293 bin, 0 int, 0 impl, 0 cont) and 303 constraints
    298 constraints of type <setppc>
      2 constraints of type <orbisack>
      2 constraints of type <orbitope>
      1 constraints of type <symretope>
transformed objective value is always integral (scale: 1)
Presolving Time: 0.01

 time | node  | left  |LP iter|LP it/n|mem/heur|mdpt |vars |cons |rows |cuts |sepa|confs|strbr|  dualbound   | primalbound  |  gap   | compl. 
  0.0s|     1 |     0 |   248 |     - |  4749k |   0 | 293 | 327 | 300 |   0 |  0 |  27 |   0 | 0.000000e+00 |      --      |    Inf | unknown
  0.1s|     1 |     0 |   576 |     - |  6627k |   0 | 293 | 528 | 299 |   3 |  1 |  28 |   0 | 0.000000e+00 |      --      |    Inf | unknown
  0.2s|     1 |     0 |   639 |     - |  9259k |   0 | 293 | 526 | 301 |   5 |  2 |  29 |   0 | 0.000000e+00 |      --      |    Inf | unknown
  0.2s|     1 |     0 |   727 |     - |  9930k |   0 | 293 | 528 | 304 |   8 |  3 |  31 |   0 | 0.000000e+00 |      --      |    Inf | unknown
  0.2s|     1 |     0 |   799 |     - |    12M |   0 | 293 | 529 | 307 |  11 |  4 |  32 |   0 | 0.000000e+00 |      --      |    Inf | unknown
  0.3s|     1 |     0 |   917 |     - |    12M |   0 | 293 | 539 | 309 |  13 |  5 |  42 |   0 | 0.000000e+00 |      --      |    Inf | unknown
  0.3s|     1 |     0 |  1004 |     - |    15M |   0 | 293 | 542 | 311 |  15 |  6 |  45 |   0 | 0.000000e+00 |      --      |    Inf | unknown
  0.3s|     1 |     0 |  1110 |     - |    18M |   0 | 293 | 544 | 313 |  17 |  7 |  47 |   0 | 0.000000e+00 |      --      |    Inf | unknown
  0.4s|     1 |     0 |  1215 |     - |    18M |   0 | 293 | 546 | 314 |  18 |  8 |  49 |   0 | 0.000000e+00 |      --      |    Inf | unknown
  0.4s|     1 |     0 |  1313 |     - |    20M |   0 | 293 | 547 | 316 |  20 |  9 |  50 |   0 | 0.000000e+00 |      --      |    Inf | unknown
  0.4s|     1 |     0 |  1376 |     - |    21M |   0 | 293 | 548 | 318 |  22 | 10 |  51 |   0 | 0.000000e+00 |      --      |    Inf | unknown
  0.5s|     1 |     0 |  1440 |     - |    21M |   0 | 293 | 550 | 317 |  23 | 11 |  53 |   0 | 0.000000e+00 |      --      |    Inf | unknown
  0.6s|     1 |     2 |  1749 |     - |    21M |   0 | 293 | 553 | 317 |  23 | 11 |  57 |  10 | 0.000000e+00 |      --      |    Inf | unknown
  2.1s|   100 |    31 | 10014 |  86.9 |    24M |  12 | 293 | 816 | 309 |  60 |  1 | 326 |  10 | 0.000000e+00 |      --      |    Inf |  40.19%
  2.5s|   200 |    28 | 14083 |  63.7 |    27M |  14 | 293 |1036 | 309 | 151 |  1 | 555 |  10 | 0.000000e+00 |      --      |    Inf |  45.34%
 time | node  | left  |LP iter|LP it/n|mem/heur|mdpt |vars |cons |rows |cuts |sepa|confs|strbr|  dualbound   | primalbound  |  gap   | compl. 
  3.3s|   300 |    21 | 19702 |  61.2 |    26M |  15 | 293 |1212 | 306 | 208 |  1 | 736 |  10 | 0.000000e+00 |      --      |    Inf |  65.08%
  3.8s|   400 |    27 | 25300 |  59.9 |    27M |  15 | 293 |1477 | 309 | 258 |  1 |1006 |  10 | 0.000000e+00 |      --      |    Inf |  66.48%
  4.6s|   500 |    32 | 31047 |  59.4 |    27M |  15 | 293 |1755 | 306 | 307 |  1 |1301 |  10 | 0.000000e+00 |      --      |    Inf |  74.88%
  5.3s|   600 |    36 | 35688 |  57.2 |    27M |  17 | 293 |1962 | 308 | 315 |  0 |1528 |  10 | 0.000000e+00 |      --      |    Inf |  87.29%
  5.6s|   700 |    43 | 40704 |  56.2 |    27M |  18 | 293 |2160 | 310 | 335 |  1 |1749 |  10 | 0.000000e+00 |      --      |    Inf |  88.18%
  5.8s|   800 |    34 | 44963 |  54.5 |    28M |  19 | 293 |2327 | 317 | 357 |  4 |1937 |  10 | 0.000000e+00 |      --      |    Inf |  88.55%
  6.3s|   900 |    24 | 49362 |  53.3 |    28M |  19 | 293 |2500 | 311 | 378 |  1 |2169 |  10 | 0.000000e+00 |      --      |    Inf |  95.33%
  6.5s|  1000 |    34 | 52947 |  51.6 |    28M |  19 | 293 |2593 | 310 | 391 |  1 |2336 |  10 | 0.000000e+00 |      --      |    Inf |  95.49%
  6.7s|  1100 |    33 | 56710 |  50.3 |    28M |  19 | 293 |2649 | 309 | 395 |  0 |2546 |  10 | 0.000000e+00 |      --      |    Inf |  95.98%
  7.1s|  1200 |    36 | 62615 |  51.0 |    28M |  19 | 293 |2671 | 306 | 461 |  1 |2833 |  10 | 0.000000e+00 |      --      |    Inf |  96.73%
  7.4s|  1300 |    33 | 68276 |  51.5 |    28M |  19 | 293 |2716 | 312 | 512 |  0 |3074 |  10 | 0.000000e+00 |      --      |    Inf |  97.23%
  7.7s|  1400 |    25 | 72685 |  50.9 |    28M |  19 | 293 |2588 | 309 | 532 |  1 |3295 |  10 | 0.000000e+00 |      --      |    Inf |  97.63%
  7.9s|  1500 |    10 | 76347 |  50.0 |    29M |  19 | 293 |2584 | 312 | 532 |  0 |3482 |  10 | 0.000000e+00 |      --      |    Inf |  98.00%
  8.2s|  1600 |     5 | 80484 |  49.5 |    29M |  19 | 293 |2494 | 309 | 588 |  1 |3603 |  10 | 0.000000e+00 |      --      |    Inf |  99.89%

SCIP Status        : problem is solved [infeasible]
Solving Time (sec) : 8.28
Solving Nodes      : 1624
Primal Bound       : +1.00000000000000e+20 (0 solutions)
Dual Bound         : +1.00000000000000e+20
Gap                : 0.00 %
SCIP Status        : problem is solved [infeasible]
Total Time         :       8.28
  solving          :       8.28
  presolving       :       0.01 (included in solving)
  reading          :       0.00
  copying          :       0.13 (34 #copies) (minimal 0.00, maximal 0.01, average 0.00)
Original Problem   :
  Problem name     : model
  Variables        : 306 (306 binary, 0 integer, 0 implicit integer, 0 continuous)
  Constraints      : 306 initial, 306 maximal
  Objective        : minimize, 0 non-zeros (abs.min = 1e+20, abs.max = -1e+20)
Presolved Problem  :
  Problem name     : t_model
  Variables        : 293 (293 binary, 0 integer, 0 implicit integer, 0 continuous)
  Constraints      : 303 initial, 2727 maximal
  Objective        : minimize, 0 non-zeros (abs.min = 1e+20, abs.max = -1e+20)
  Nonzeros         : 2096 constraint, 892 clique table
Presolvers         :   ExecTime  SetupTime  Calls  FixedVars   AggrVars   ChgTypes  ChgBounds   AddHoles    DelCons    AddCons   ChgSides   ChgCoefs
  boundshift       :       0.00       0.00      0          0          0          0          0          0          0          0          0          0
  convertinttobin  :       0.00       0.00      0          0          0          0          0          0          0          0          0          0
  domcol           :       0.00       0.00      2          0          0          0          0          0          0          0          0          0
  dualagg          :       0.00       0.00      0          0          0          0          0          0          0          0          0          0
  dualcomp         :       0.00       0.00      0          0          0          0          0          0          0          0          0          0
  dualinfer        :       0.00       0.00      0          0          0          0          0          0          0          0          0          0
  dualsparsify     :       0.00       0.00      1          0          0          0          0          0          0          0          0          0
  gateextraction   :       0.00       0.00      0          0          0          0          0          0          0          0          0          0
  implics          :       0.00       0.00      4          0          0          0          0          0          0          0          0          0
  inttobinary      :       0.00       0.00      0          0          0          0          0          0          0          0          0          0
  qpkktref         :       0.00       0.00      0          0          0          0          0          0          0          0          0          0
  redvub           :       0.00       0.00      0          0          0          0          0          0          0          0          0          0
  sparsify         :       0.00       0.00      1          0          0          0          0          0          0          0          0          0
  stuffing         :       0.00       0.00      0          0          0          0          0          0          0          0          0          0
  trivial          :       0.00       0.00      6          5          0          0          0          0          0          0          0          0
  tworowbnd        :       0.00       0.00      0          0          0          0          0          0          0          0          0          0
  dualfix          :       0.00       0.00      6          0          0          0          0          0          0          0          0          0
  genvbounds       :       0.00       0.00      0          0          0          0          0          0          0          0          0          0
  probing          :       0.00       0.00      2          0          0          0          0          0          0          0          0          0
  pseudoobj        :       0.00       0.00      0          0          0          0          0          0          0          0          0          0
  symmetry         :       0.00       0.00      1          2          0          0          0          0          0          5          0          0
  vbounds          :       0.00       0.00      1          0          0          0          0          0          0          0          0          0
  knapsack         :       0.00       0.00      0          0          0          0          0          0          0          0          0          0
  setppc           :       0.00       0.00     10          0          5          0          0          0          8          0          0          0
  linear           :       0.00       0.00      2          0          0          0          0          0          0          0          0          0
  orbisack         :       0.00       0.00      1          0          0          0          0          0          0          0          0          0
  orbitope         :       0.00       0.00      2          1          0          0          0          0          0          0          0          0
  symretope        :       0.00       0.00      1          0          0          0          0          0          0          0          0          0
  logicor          :       0.00       0.00      0          0          0          0          0          0          0          0          0          0
  benders          :       0.00       0.00      0          0          0          0          0          0          0          0          0          0
  components       :       0.00       0.00      1          0          0          0          0          0          0          0          0          0
  root node        :          -          -      -         13          -          -         13          -          -          -          -          -
Constraints        :     Number  MaxNumber  #Separate #Propagate    #EnfoLP    #EnfoRelax  #EnfoPS    #Check   #ResProp    Cutoffs    DomReds       Cuts    Applied      Conss   Children
  benderslp        :          0          0          0          0        877          0          0          7          0          0          0          0          0          0          0
  integral         :          0          0          0          0        877          0          0          7          0          0          0          0          0          0       1754
  knapsack         :          0+        76          0      13314          0          0          0          0       3257         89       4441          0          0          0          0
  setppc           :        298+       309         12      14158          0          0          0          3      36484        353      28735          0          0          0          0
  linear           :          0+       220         11      13359          0          0          0          0        676         34        858          2          2          0          0
  orbisack         :          2          2          0         42          0          0          0          0         11         13         19          0          0          0          0
  orbitope         :          2          2          0      13658          0          0          0          0        738          1        203          0          0          0          0
  symretope        :          1          1          0       1104          0          0          0          0        453         10        172          0          0          0          0
  logicor          :          0+      2139         12       9262          0          0          0          0       5794        102       4368          6          1          0          0
  benders          :          0          0          0          0          0          0          0          0          0          0          0          0          0          0          0
  countsols        :          0          0          0          0          0          0          0          0          0          0          0          0          0          0          0
  components       :          0          0          0          0          0          0          0          0          0          0          0          0          0          0          0
Constraint Timings :  TotalTime  SetupTime   Separate  Propagate     EnfoLP     EnfoPS     EnfoRelax   Check    ResProp    SB-Prop
  benderslp        :       0.00       0.00       0.00       0.00       0.00       0.00       0.00       0.00       0.00       0.00
  integral         :       0.11       0.00       0.00       0.00       0.11       0.00       0.00       0.00       0.00       0.00
  knapsack         :       0.07       0.00       0.00       0.07       0.00       0.00       0.00       0.00       0.01       0.00
  setppc           :       0.18       0.00       0.00       0.16       0.00       0.00       0.00       0.00       0.01       0.00
  linear           :       0.03       0.00       0.00       0.03       0.00       0.00       0.00       0.00       0.00       0.00
  orbisack         :       0.00       0.00       0.00       0.00       0.00       0.00       0.00       0.00       0.00       0.00
  orbitope         :       0.04       0.00       0.00       0.04       0.00       0.00       0.00       0.00       0.01       0.00
  symretope        :       0.01       0.00       0.00       0.01       0.00       0.00       0.00       0.00       0.00       0.00
  logicor          :       0.15       0.00       0.00       0.14       0.00       0.00       0.00       0.00       0.00       0.00
  benders          :       0.00       0.00       0.00       0.00       0.00       0.00       0.00       0.00       0.00       0.00
  countsols        :       0.00       0.00       0.00       0.00       0.00       0.00       0.00       0.00       0.00       0.00
  components       :       0.00       0.00       0.00       0.00       0.00       0.00       0.00       0.00       0.00       0.00
Propagators        : #Propagate   #ResProp    Cutoffs    DomReds
  dualfix          :          2          0          0          0
  genvbounds       :          0          0          0          0
  nlobbt           :          0          0          0          0
  obbt             :          0          0          0          0
  probing          :          0          0          0          0
  pseudoobj        :          0          0          0          0
  redcost          :          0          0          0          0
  rootredcost      :          0          0          0          0
  symmetry         :          0          0          0          0
  vbounds          :      10235          0          0          0
Propagator Timings :  TotalTime  SetupTime   Presolve  Propagate    ResProp    SB-Prop
  dualfix          :       0.00       0.00       0.00       0.00       0.00       0.00
  genvbounds       :       0.00       0.00       0.00       0.00       0.00       0.00
  nlobbt           :       0.00       0.00       0.00       0.00       0.00       0.00
  obbt             :       0.00       0.00       0.00       0.00       0.00       0.00
  probing          :       0.00       0.00       0.00       0.00       0.00       0.00
  pseudoobj        :       0.00       0.00       0.00       0.00       0.00       0.00
  redcost          :       0.00       0.00       0.00       0.00       0.00       0.00
  rootredcost      :       0.00       0.00       0.00       0.00       0.00       0.00
  symmetry         :       0.00       0.00       0.00       0.00       0.00       0.00
  vbounds          :       0.01       0.00       0.00       0.01       0.00       0.00
Orbital fixing     :
  vars fixed to 0  :          0
  vars fixed to 1  :          0
Conflict Analysis  :       Time      Calls    Success    DomReds  Conflicts   Literals    Reconvs ReconvLits   Dualrays   Nonzeros   LP Iters   (pool size: [10000,10000])
  propagation      :       0.03        576        535          -       2736       22.0         41        9.5          -          -          -
  infeasible LP    :       0.10        574        492          -       2752       18.1         21        6.6        310       27.6          0
  bound exceed. LP :       0.00          0          0          -          0        0.0          0        0.0          0        0.0          0
  strong branching :       0.00          0          0          -          0        0.0          0        0.0          -          -          0
  pseudo solution  :       0.00          0          0          -          0        0.0          0        0.0          -          -          -
  applied globally :       0.02          -          -          0       3323       15.2          -          -        264          -          -
  applied locally  :          -          -          -          0         18       26.2          -          -         46          -          -
Separators         :   ExecTime  SetupTime      Calls  RootCalls    Cutoffs    DomReds  FoundCuts ViaPoolAdd  DirectAdd    Applied ViaPoolApp  DirectApp      Conss
  cut pool         :       0.38          -        440         21          -          -       7625       3529          -          -          -          -          -    (maximal pool size:       3671)
  aggregation      :       0.25       0.00        241         11          0          0          0          0          0          0          0          0          0
  > cmir           :          -          -          -          -          -          -          -          0          0          0          0          0          -
  > flowcover      :          -          -          -          -          -          -          -          0          0          0          0          0          -
  > knapsackcover  :          -          -          -          -          -          -          -          0          0          0          0          0          -
  cgmip            :       0.00       0.00          0          0          0          0          0          0          0          0          0          0          0
  clique           :       0.00       0.00         11         11          0          0          0          0          0          0          0          0          0
  closecuts        :       0.00       0.00          0          0          0          0          0          0          0          0          0          0          0
  convexproj       :       0.00       0.00          0          0          0          0          0          0          0          0          0          0          0
  disjunctive      :       0.00       0.00          0          0          0          0          0          0          0          0          0          0          0
  eccuts           :       0.00       0.00          0          0          0          0          0          0          0          0          0          0          0
  gauge            :       0.00       0.00          0          0          0          0          0          0          0          0          0          0          0
  gomory           :       0.89       0.00        240         10          0          0      11257       3479       3684        306        216         90          0
  > gomorymi       :          -          -          -          -          -          -          -        821       1842         69         19         50          -
  > strongcg       :          -          -          -          -          -          -          -       2658       1842        237        197         40          -
  impliedbounds    :       0.00       0.00        241         11          0          2          2          7          0          7          7          0          0
  interminor       :       0.00       0.00          0          0          0          0          0          0          0          0          0          0          0
  intobj           :       0.00       0.00          0          0          0          0          0          0          0          0          0          0          0
  mcf              :       0.00       0.00          1          1          0          0          0          0          0          0          0          0          0
  minor            :       0.00       0.00          0          0          0          0          0          0          0          0          0          0          0
  mixing           :       0.00       0.00          0          0          0          0          0          0          0          0          0          0          0
  oddcycle         :       0.00       0.00          0          0          0          0          0          0          0          0          0          0          0
  rapidlearning    :       2.80       0.00         32          1          0       3731          0          0          0          0          0          0        455
  rlt              :       0.00       0.00         10         10          0          0          0          0          0          0          0          0          0
  zerohalf         :       0.13       0.00        241         11          0          0        363         43        313        272         41        231          0
Cutselectors       :   ExecTime  SetupTime      Calls  RootCalls   Selected     Forced   Filtered  RootSelec   RootForc   RootFilt 
  hybrid           :       0.01       0.00        240         11        588          0       6946         23          0       1051
Pricers            :   ExecTime  SetupTime      Calls       Vars
  problem variables:       0.00          -          0          0
Branching Rules    :   ExecTime  SetupTime   BranchLP  BranchExt   BranchPS    Cutoffs    DomReds       Cuts      Conss   Children
  allfullstrong    :       0.00       0.00          0          0          0          0          0          0          0          0
  cloud            :       0.00       0.00          0          0          0          0          0          0          0          0
  distribution     :       0.00       0.00          0          0          0          0          0          0          0          0
  fullstrong       :       0.00       0.00          0          0          0          0          0          0          0          0
  inference        :       0.00       0.00          0          0          0          0          0          0          0          0
  leastinf         :       0.00       0.00          0          0          0          0          0          0          0          0
  lookahead        :       0.00       0.00          0          0          0          0          0          0          0          0
  mostinf          :       0.00       0.00          0          0          0          0          0          0          0          0
  multaggr         :       0.00       0.00          0          0          0          0          0          0          0          0
  nodereopt        :       0.00       0.00          0          0          0          0          0          0          0          0
  pscost           :       0.00       0.00          0          0          0          0          0          0          0          0
  random           :       0.00       0.00          0          0          0          0          0          0          0          0
  relpscost        :       0.11       0.00        877          0          0          0          0          0          0       1754
  vanillafullstrong:       0.00       0.00          0          0          0          0          0          0          0          0
Primal Heuristics  :   ExecTime  SetupTime      Calls      Found       Best
  LP solutions     :       0.00          -          -          0          0
  relax solutions  :       0.00          -          -          0          0
  pseudo solutions :       0.00          -          -          0          0
  strong branching :       0.00          -          -          0          0
  actconsdiving    :       0.00       0.00          0          0          0
  adaptivediving   :       0.06       0.00         28          0          0
  alns             :       0.01       0.00          1          0          0
  bound            :       0.00       0.00          0          0          0
  clique           :       0.00       0.00          1          0          0
  coefdiving       :       0.00       0.00          0          0          0
  completesol      :       0.00       0.00          0          0          0
  conflictdiving   :       0.04       0.00         14          0          0
  crossover        :       0.00       0.00          0          0          0
  dins             :       0.00       0.00          0          0          0
  distributiondivin:       0.05       0.00         14          0          0
  dps              :       0.00       0.00          0          0          0
  dualval          :       0.00       0.00          0          0          0
  farkasdiving     :       0.00       0.00          0          0          0
  feaspump         :       0.01       0.00          1          0          0
  fixandinfer      :       0.00       0.00          0          0          0
  fracdiving       :       0.02       0.00         14          0          0
  gins             :       0.00       0.00          0          0          0
  guideddiving     :       0.00       0.00          0          0          0
  indicator        :       0.00       0.00          0          0          0
  intdiving        :       0.00       0.00          0          0          0
  intshifting      :       0.00       0.00          0          0          0
  linesearchdiving :       0.05       0.00         14          0          0
  localbranching   :       0.00       0.00          0          0          0
  locks            :       0.00       0.00          1          0          0
  lpface           :       0.00       0.00          0          0          0
  mpec             :       0.00       0.00          0          0          0
  multistart       :       0.00       0.00          0          0          0
  mutation         :       0.00       0.00          0          0          0
  nlpdiving        :       0.00       0.00          0          0          0
  objpscostdiving  :       0.01       0.00          5          0          0
  octane           :       0.00       0.00          0          0          0
  ofins            :       0.00       0.00          0          0          0
  oneopt           :       0.00       0.00          0          0          0
  padm             :       0.00       0.00          0          0          0
  proximity        :       0.00       0.00          0          0          0
  pscostdiving     :       0.03       0.00         14          0          0
  randrounding     :       0.01       0.00         12          0          0
  rens             :       0.00       0.00          0          0          0
  reoptsols        :       0.00       0.00          0          0          0
  repair           :       0.00       0.00          0          0          0
  rins             :       0.00       0.00          0          0          0
  rootsoldiving    :       0.07       0.00          6          0          0
  rounding         :       0.02       0.00        433          0          0
  shiftandpropagate:       0.00       0.00          1          0          0
  shifting         :       0.02       0.00        203          0          0
  simplerounding   :       0.00       0.00          0          0          0
  subnlp           :       0.00       0.00          0          0          0
  trivial          :       0.00       0.00          2          0          0
  trivialnegation  :       0.00       0.00          0          0          0
  trustregion      :       0.00       0.00          0          0          0
  trysol           :       0.00       0.00          0          0          0
  twoopt           :       0.00       0.00          0          0          0
  undercover       :       0.00       0.00          0          0          0
  vbounds          :       0.01       0.00          1          0          0
  veclendiving     :       0.03       0.00         15          0          0
  zeroobj          :       0.00       0.00          0          0          0
  zirounding       :       0.01       0.00        876          0          0
  other solutions  :          -          -          -          0          -
LP                 :       Time      Calls Iterations  Iter/call   Iter/sec  Time-0-It Calls-0-It    ItLimit
  primal LP        :       0.10        106          0       0.00       0.00       0.10        106
  dual LP          :       2.19       1671      75815      45.92   34562.99       0.01         20
  lex dual LP      :       0.00          0          0       0.00          -
  barrier LP       :       0.00          0          0       0.00          -       0.00          0
  resolve instable :       0.00          0          0       0.00          -
  diving/probing LP:       0.19        160       5445      34.03   28075.98
  strong branching :       0.08         10       2357     235.70   29745.45          -          -          0
    (at root node) :          -         10       2357     235.70          -
  conflict analysis:       0.00          0          0       0.00          -
B&B Tree           :
  number of runs   :          1
  nodes            :       1624 (877 internal, 747 leaves)
  feasible leaves  :          0
  infeas. leaves   :        747
  objective leaves :          0
  nodes (total)    :       1624 (877 internal, 747 leaves)
  nodes left       :          0
  max depth        :         19
  max depth (total):         19
  backtracks       :        584 (36.0%)
  early backtracks :          0 (0.0%)
  nodes exc. ref.  :          0 (0.0%)
  delayed cutoffs  :        131
  repropagations   :        876 (10169 domain reductions, 107 cutoffs)
  avg switch length:       4.21
  switching time   :       0.30
Root Node          :
  First LP value   : +0.00000000000000e+00
  First LP Iters   :        221 (61337.77 Iter/sec)
  First LP Time    :       0.00
  Final Dual Bound : +0.00000000000000e+00
  Final Root Iters :       1413
  Root LP Estimate : +6.42185583545003e-03
Solution           :
  Solutions found  :          0 (0 improvements)
  Primal Bound     : infeasible
  Dual Bound       :          -
  Gap              :       0.00 %
Integrals          :      Total       Avg%
  primal-dual      :          -          - (problem infeasible)
  primal-ref       :          -          - (problem infeasible)
  dual-ref         :          -          - (problem infeasible)
written solution information to file <results/final_flowersnark__settings_final_nopeek_relabel_min__2__flowersnark17_3.cip.sol>
@04 1667977076
